c Created with the Wolfram Language : www.wolfram.com
c 
p edge 80 613
e 3 4
e 4 5
e 3 7
e 1 8
e 2 9
e 1 10
e 7 10
e 2 11
e 6 11
e 7 11
e 2 12
e 10 12
e 8 13
e 11 13
e 3 14
e 8 14
e 10 14
e 3 15
e 4 15
e 6 15
e 7 15
e 14 15
e 1 16
e 8 16
e 12 16
e 15 16
e 9 17
e 11 17
e 6 18
e 7 18
e 14 18
e 12 19
e 15 20
e 1 21
e 4 21
e 5 21
e 7 21
e 10 21
e 13 21
e 14 21
e 19 21
e 8 22
e 9 22
e 5 23
e 9 23
e 10 23
e 11 23
e 7 24
e 13 24
e 17 24
e 2 25
e 4 25
e 7 25
e 9 25
e 10 25
e 15 25
e 18 25
e 20 25
e 22 25
e 6 26
e 7 26
e 8 26
e 11 26
e 22 26
e 3 27
e 8 27
e 9 27
e 11 27
e 14 27
e 16 27
e 18 27
e 20 27
e 1 28
e 2 28
e 13 28
e 18 28
e 20 28
e 27 28
e 3 29
e 5 29
e 6 29
e 14 29
e 15 29
e 26 29
e 28 29
e 1 30
e 9 30
e 10 30
e 13 30
e 20 30
e 22 30
e 25 30
e 28 30
e 8 31
e 9 31
e 12 31
e 17 31
e 19 31
e 22 31
e 28 31
e 29 31
e 30 31
e 2 32
e 15 32
e 18 32
e 21 32
e 23 32
e 26 32
e 28 32
e 1 33
e 11 33
e 12 33
e 14 33
e 15 33
e 25 33
e 3 34
e 5 34
e 7 34
e 13 34
e 14 34
e 15 34
e 16 34
e 17 34
e 25 34
e 27 34
e 2 35
e 4 35
e 5 35
e 6 35
e 13 35
e 15 35
e 21 35
e 24 35
e 1 36
e 14 36
e 16 36
e 3 37
e 19 37
e 22 37
e 29 37
e 36 37
e 5 38
e 8 38
e 11 38
e 13 38
e 17 38
e 21 38
e 1 39
e 9 39
e 11 39
e 36 39
e 1 40
e 5 40
e 7 40
e 12 40
e 20 40
e 23 40
e 24 40
e 25 40
e 39 40
e 2 41
e 3 41
e 6 41
e 13 41
e 16 41
e 20 41
e 25 41
e 28 41
e 34 41
e 35 41
e 37 41
e 6 42
e 7 42
e 8 42
e 17 42
e 20 42
e 21 42
e 24 42
e 27 42
e 29 42
e 36 42
e 38 42
e 33 43
e 35 43
e 36 43
e 39 43
e 41 43
e 42 43
e 13 44
e 21 44
e 24 44
e 27 44
e 32 44
e 34 44
e 8 45
e 12 45
e 16 45
e 28 45
e 31 45
e 32 45
e 35 45
e 38 45
e 40 45
e 43 45
e 3 46
e 5 46
e 27 46
e 44 46
e 45 46
e 6 47
e 12 47
e 18 47
e 24 47
e 37 47
e 43 47
e 46 47
e 5 48
e 14 48
e 27 48
e 35 48
e 39 48
e 45 48
e 3 49
e 4 49
e 14 49
e 24 49
e 28 49
e 36 49
e 45 49
e 47 49
e 6 50
e 9 50
e 14 50
e 17 50
e 24 50
e 29 50
e 30 50
e 39 50
e 40 50
e 2 51
e 4 51
e 5 51
e 9 51
e 13 51
e 15 51
e 21 51
e 22 51
e 25 51
e 34 51
e 39 51
e 44 51
e 2 52
e 3 52
e 6 52
e 9 52
e 11 52
e 14 52
e 15 52
e 19 52
e 26 52
e 38 52
e 39 52
e 42 52
e 1 53
e 2 53
e 5 53
e 8 53
e 10 53
e 13 53
e 22 53
e 30 53
e 32 53
e 34 53
e 37 53
e 38 53
e 39 53
e 49 53
e 12 54
e 24 54
e 31 54
e 33 54
e 34 54
e 36 54
e 40 54
e 46 54
e 49 54
e 4 55
e 11 55
e 19 55
e 20 55
e 22 55
e 24 55
e 26 55
e 29 55
e 34 55
e 35 55
e 42 55
e 51 55
e 52 55
e 11 56
e 14 56
e 25 56
e 26 56
e 30 56
e 39 56
e 12 57
e 15 57
e 17 57
e 19 57
e 28 57
e 32 57
e 37 57
e 39 57
e 46 57
e 4 58
e 14 58
e 16 58
e 30 58
e 35 58
e 48 58
e 51 58
e 52 58
e 3 59
e 4 59
e 5 59
e 6 59
e 9 59
e 11 59
e 15 59
e 16 59
e 30 59
e 31 59
e 32 59
e 37 59
e 39 59
e 45 59
e 48 59
e 49 59
e 2 60
e 6 60
e 14 60
e 15 60
e 16 60
e 18 60
e 19 60
e 26 60
e 32 60
e 36 60
e 37 60
e 44 60
e 45 60
e 48 60
e 52 60
e 10 61
e 13 61
e 14 61
e 22 61
e 27 61
e 35 61
e 36 61
e 38 61
e 39 61
e 45 61
e 54 61
e 57 61
e 35 62
e 40 62
e 43 62
e 48 62
e 52 62
e 53 62
e 54 62
e 55 62
e 56 62
e 1 63
e 5 63
e 6 63
e 9 63
e 16 63
e 18 63
e 27 63
e 29 63
e 32 63
e 39 63
e 50 63
e 55 63
e 56 63
e 57 63
e 4 64
e 8 64
e 14 64
e 29 64
e 35 64
e 36 64
e 59 64
e 60 64
e 13 65
e 34 65
e 43 65
e 45 65
e 51 65
e 53 65
e 54 65
e 57 65
e 61 65
e 2 66
e 3 66
e 4 66
e 10 66
e 14 66
e 20 66
e 33 66
e 40 66
e 55 66
e 58 66
e 62 66
e 63 66
e 7 67
e 9 67
e 11 67
e 14 67
e 20 67
e 30 67
e 36 67
e 40 67
e 44 67
e 45 67
e 46 67
e 47 67
e 53 67
e 8 68
e 12 68
e 22 68
e 23 68
e 27 68
e 35 68
e 40 68
e 43 68
e 58 68
e 60 68
e 3 69
e 6 69
e 29 69
e 31 69
e 36 69
e 40 69
e 45 69
e 55 69
e 57 69
e 60 69
e 62 69
e 63 69
e 64 69
e 65 69
e 4 70
e 10 70
e 14 70
e 17 70
e 19 70
e 20 70
e 23 70
e 26 70
e 29 70
e 45 70
e 51 70
e 62 70
e 66 70
e 67 70
e 7 71
e 15 71
e 18 71
e 20 71
e 24 71
e 26 71
e 42 71
e 46 71
e 60 71
e 62 71
e 63 71
e 70 71
e 6 72
e 7 72
e 21 72
e 22 72
e 24 72
e 28 72
e 38 72
e 40 72
e 41 72
e 46 72
e 48 72
e 49 72
e 52 72
e 58 72
e 65 72
e 3 73
e 4 73
e 11 73
e 12 73
e 24 73
e 36 73
e 37 73
e 38 73
e 41 73
e 46 73
e 51 73
e 56 73
e 58 73
e 64 73
e 69 73
e 70 73
e 71 73
e 7 74
e 11 74
e 13 74
e 20 74
e 23 74
e 24 74
e 30 74
e 42 74
e 48 74
e 49 74
e 52 74
e 54 74
e 58 74
e 60 74
e 61 74
e 26 75
e 35 75
e 46 75
e 48 75
e 49 75
e 57 75
e 63 75
e 69 75
e 73 75
e 4 76
e 5 76
e 22 76
e 27 76
e 37 76
e 42 76
e 48 76
e 57 76
e 60 76
e 62 76
e 69 76
e 75 76
e 9 77
e 19 77
e 26 77
e 29 77
e 33 77
e 37 77
e 40 77
e 50 77
e 55 77
e 56 77
e 57 77
e 60 77
e 63 77
e 64 77
e 67 77
e 68 77
e 70 77
e 72 77
e 73 77
e 75 77
e 9 78
e 12 78
e 14 78
e 15 78
e 20 78
e 25 78
e 27 78
e 35 78
e 36 78
e 37 78
e 38 78
e 40 78
e 42 78
e 44 78
e 45 78
e 47 78
e 49 78
e 72 78
e 1 79
e 3 79
e 9 79
e 20 79
e 28 79
e 33 79
e 43 79
e 46 79
e 49 79
e 51 79
e 54 79
e 61 79
e 63 79
e 73 79
e 77 79
e 1 80
e 10 80
e 24 80
e 25 80
e 38 80
e 40 80
e 57 80
e 58 80
e 60 80
e 70 80
e 77 80
e 78 80
